
Log started (V11.0.0) Sun Apr 13 13:00:49 2008

Tried aggregator 1 time.
Reduced MIP has 150 rows, 5001 columns, and 10050 nonzeros.
Presolve time =    0.05 sec.
Clique table members: 100.
MIP emphasis: balance optimality and feasibility.
MIP search method: dynamic search.
Parallel mode: none, using 1 thread.
Root relaxation solution time =    0.12 sec.

        Nodes                                         Cuts/
   Node  Left     Objective  IInf  Best Integer     Best Node    ItCnt     Gap

*     0+    0                         5348.0000        5.4289      759   99.90%
*     0+    0                           11.0000        5.4289      759   50.65%
      0     0        6.0000    60       11.0000      Fract: 3      787   45.45%
*     0+    0                           10.0000        6.0000      787   40.00%
      0     0        7.0000    32       10.0000      Cuts: 18      819   30.00%
*     0+    0                            9.0000        7.0000      819   22.22%
      0     0        7.0000    45        9.0000       Cuts: 4      860   22.22%
*     0+    0                            8.0000        7.0000      860   12.50%

Repeating presolve.
Represolve time =    0.00 sec.

Solution pool: 5 solutions saved.

MIP - Integer optimal solution:  Objective = 8.0000000000e+000
Solution time =    0.38 sec.  Iterations = 0  Nodes = 0


Incumbent solution
Variable Name           Solution Value
Cmax                          8.000000
X_1_15                        1.000000
X_2_23                        1.000000
X_3_25                        1.000000
X_4_40                        1.000000
X_5_18                        1.000000
X_6_49                        1.000000
X_7_47                        1.000000
X_8_28                        1.000000
X_9_30                        1.000000
X_10_14                       1.000000
X_11_37                       1.000000
X_12_29                       1.000000
X_13_10                       1.000000
X_14_14                       1.000000
X_15_13                       1.000000
X_16_12                       1.000000
X_17_42                       1.000000
X_18_34                       1.000000
X_19_6                        1.000000
X_20_28                       1.000000
X_21_2                        1.000000
X_22_4                        1.000000
X_23_50                       1.000000
X_24_46                       1.000000
X_25_41                       1.000000
X_26_20                       1.000000
X_27_32                       1.000000
X_28_47                       1.000000
X_29_4                        1.000000
X_30_44                       1.000000
X_31_30                       1.000000
X_32_35                       1.000000
X_33_22                       1.000000
X_34_1                        1.000000
X_35_17                       1.000000
X_36_24                       1.000000
X_37_43                       1.000000
X_38_39                       1.000000
X_39_38                       1.000000
X_40_40                       1.000000
X_41_10                       1.000000
X_42_28                       1.000000
X_43_45                       1.000000
X_44_41                       1.000000
X_45_43                       1.000000
X_46_32                       1.000000
X_47_1                        1.000000
X_48_33                       1.000000
X_49_49                       1.000000
X_50_47                       1.000000
X_51_16                       1.000000
X_52_46                       1.000000
X_53_5                        1.000000
X_54_24                       1.000000
X_55_39                       1.000000
X_56_8                        1.000000
X_57_10                       1.000000
X_58_8                        1.000000
X_59_29                       1.000000
X_60_26                       1.000000
X_61_5                        1.000000
X_62_44                       1.000000
X_63_41                       1.000000
X_64_7                        1.000000
X_65_24                       1.000000
X_66_32                       1.000000
X_67_38                       1.000000
X_68_28                       1.000000
X_69_31                       1.000000
X_70_24                       1.000000
X_71_36                       1.000000
X_72_22                       1.000000
X_73_47                       1.000000
X_74_3                        1.000000
X_75_40                       1.000000
X_76_36                       1.000000
X_77_21                       1.000000
X_78_16                       1.000000
X_79_19                       1.000000
X_80_30                       1.000000
X_81_48                       1.000000
X_82_11                       1.000000
X_83_14                       1.000000
X_84_34                       1.000000
X_85_17                       1.000000
X_86_31                       1.000000
X_87_27                       1.000000
X_88_9                        1.000000
X_89_2                        1.000000
X_90_22                       1.000000
X_91_12                       1.000000
X_92_38                       1.000000
X_93_18                       1.000000
X_94_32                       1.000000
X_95_26                       1.000000
X_96_27                       1.000000
X_97_24                       1.000000
X_98_50                       1.000000
X_99_39                       1.000000
X_100_43                      1.000000
All other variables in the range 1-5001 are 0.
